[[73, 63, 23, 56, 41, 43, 42, 64, 22, 62, 28, 61, 74, 21, 47, 69, 36, 71, 60, 70, 20, 37, 15, 57, 5, 29, 45, 48, 30, 2, 68, 6, 51, 17, 12, 26, 76, 75, 67, 4, 34, 46, 52], [27, 13, 54, 19, 8, 35, 7, 53, 14, 59, 11, 66, 65, 38, 10, 31, 58, 72, 39, 9, 25, 55, 18, 50, 32, 40, 44, 3, 24, 49, 16, 33]]